qbf_easy_train/easy_5537_SAT.qdimacs
p cnf 32 91
a 8 6 14 0
e 1 2 3 4 5 7 9 10 11 12 13 15 16 17 18 19 20 21 22 23 24 25 26 27 28 29 30 31 32 0
-2 -3 -4 0
2 3 -4 0
-2 3 4 0
2 -3 4 0
-1 -4 -5 0
1 4 -5 0
-1 4 5 0
1 -4 5 0
-8 -7 0
-8 -4 0
7 4 8 0
-6 8 -9 0
6 -8 -9 0
-6 -8 9 0
6 8 9 0
-9 -2 -10 0
9 2 -10 0
-9 2 10 0
9 -2 10 0
11 2 -12 0
-11 -2 -12 0
11 -2 12 0
-11 2 12 0
10 12 -13 0
-10 -12 -13 0
10 -12 13 0
-10 12 13 0
-14 5 0
-14 -13 0
-5 13 14 0
11 -15 0
-11 -15 0
16 4 0
16 -15 0
-4 15 -16 0
-17 -14 0
-17 -16 0
14 16 17 0
18 -4 0
18 9 0
4 -9 -18 0
4 19 -20 0
-4 -19 -20 0
4 -19 20 0
-4 19 20 0
22 4 0
22 21 0
-4 -21 -22 0
20 22 -23 0
-20 -22 -23 0
20 -22 23 0
-20 22 23 0
-18 -23 -24 0
18 23 -24 0
-18 23 24 0
18 -23 24 0
-19 -9 -25 0
19 9 -25 0
-19 9 25 0
19 -9 25 0
-26 -24 0
-26 -25 0
24 25 26 0
27 4 0
27 -3 0
-4 3 -27 0
28 4 0
28 -27 0
-4 27 -28 0
-29 -28 0
-29 -1 0
28 1 29 0
30 -29 0
30 7 0
29 -7 -30 0
26 -30 -31 0
-26 30 -31 0
26 30 31 0
-26 -30 31 0
-32 -17 0
-32 31 0
17 -31 32 0
-3 18 6 15 -22 0
-31 -9 -12 5 2 18 14 0
-27 -8 2 30 -31 0
-13 21 4 32 20 -12 -24 3 0
9 -8 -15 0
26 -7 -28 32 -19 -29 0
-30 9 23 25 -31 3 0
-2 24 -9 15 23 -16 0
32 0
