sat_easy_train/easy_5537_SAT.dimacs
p cnf 119 404
-2 -1 0
-2 -1 0
1 2 0
2 -3 -4 0
-2 3 -4 0
2 3 4 0
-2 -3 4 0
-7 5 0
-7 6 0
-5 -6 7 0
8 9 -10 0
-8 -9 -10 0
8 -9 10 0
-8 9 10 0
-7 10 -11 0
7 -10 -11 0
-7 -10 11 0
7 10 11 0
13 5 0
13 12 0
-5 -12 -13 0
11 13 -14 0
-11 -13 -14 0
11 -13 14 0
-11 13 14 0
4 14 -15 0
-4 -14 -15 0
4 -14 15 0
-4 14 15 0
15 13 -16 0
-15 -13 -16 0
15 -13 16 0
-15 13 16 0
-19 -17 0
-19 -18 0
17 18 19 0
-20 -15 0
-20 19 0
15 -19 20 0
21 3 0
21 -7 0
-3 7 -21 0
-20 21 -22 0
20 -21 -22 0
-20 -21 22 0
20 21 22 0
-23 -3 0
-23 13 0
3 -13 23 0
-23 18 -24 0
23 -18 -24 0
-23 -18 24 0
23 18 24 0
-25 24 0
-25 8 0
-24 -8 25 0
-26 -27 -28 0
26 27 -28 0
-26 27 28 0
26 -27 28 0
-25 28 -29 0
25 -28 -29 0
-25 -28 29 0
25 28 29 0
-13 -29 -30 0
13 29 -30 0
-13 29 30 0
13 -29 30 0
-12 -6 -31 0
12 6 -31 0
-12 6 31 0
12 -6 31 0
6 -32 -33 0
-6 32 -33 0
6 32 33 0
-6 -32 33 0
-31 33 -34 0
31 -33 -34 0
-31 -33 34 0
31 33 34 0
-35 18 0
-35 34 0
-18 -34 35 0
30 -35 -36 0
-30 35 -36 0
30 35 36 0
-30 -35 36 0
-37 -22 0
-37 36 0
22 -36 37 0
38 -8 0
38 17 0
8 -17 -38 0
7 39 -40 0
-7 -39 -40 0
7 -39 40 0
-7 39 40 0
-26 41 0
26 41 0
-42 40 0
-42 41 0
-40 -41 42 0
-43 -1 0
-43 -42 0
1 42 43 0
44 43 0
44 -32 0
-43 32 -44 0
45 -32 0
45 -44 0
32 44 -45 0
46 38 0
46 45 0
-38 -45 -46 0
18 20 -47 0
-18 -20 -47 0
18 -20 47 0
-18 20 47 0
48 46 0
48 47 0
-46 -47 -48 0
11 5 -49 0
-11 -5 -49 0
11 -5 49 0
-11 5 49 0
50 -48 0
50 -49 0
48 49 -50 0
51 5 0
51 -18 0
-5 18 -51 0
-8 -51 -52 0
8 51 -52 0
-8 51 52 0
8 -51 52 0
-52 6 -53 0
52 -6 -53 0
-52 -6 53 0
52 6 53 0
-54 14 0
-54 53 0
-14 -53 54 0
-56 -55 0
-56 39 0
55 -39 56 0
-57 -13 0
-57 -27 0
13 27 57 0
58 -4 0
58 -57 0
4 57 -58 0
-59 58 0
-59 -11 0
-58 11 59 0
-60 -56 0
-60 -59 0
56 59 60 0
-3 -6 -61 0
3 6 -61 0
-3 6 61 0
3 -6 61 0
62 61 0
62 -9 0
-61 9 -62 0
-63 8 0
-63 -62 0
-8 62 63 0
-60 63 -64 0
60 -63 -64 0
-60 -63 64 0
60 63 64 0
65 17 0
65 -1 0
-17 1 -65 0
-66 -65 0
-66 53 0
65 -53 66 0
-5 -6 -67 0
5 6 -67 0
-5 6 67 0
5 -6 67 0
66 67 -68 0
-66 -67 -68 0
66 -67 68 0
-66 67 68 0
69 64 0
69 68 0
-64 -68 -69 0
70 -54 0
70 -69 0
54 69 -70 0
71 -41 -72 0
-71 41 -72 0
71 41 72 0
-71 -41 72 0
-27 5 -73 0
27 -5 -73 0
-27 -5 73 0
27 5 73 0
-74 2 0
-74 73 0
-2 -73 74 0
75 51 0
75 -74 0
-51 74 -75 0
72 75 -76 0
-72 -75 -76 0
72 -75 76 0
-72 75 76 0
-77 -2 0
-77 -8 0
2 8 77 0
-78 -23 0
-78 -31 0
23 31 78 0
79 78 0
79 7 0
-78 -7 -79 0
-80 -79 0
-80 26 0
79 -26 80 0
77 -80 -81 0
-77 80 -81 0
77 80 81 0
-77 -80 81 0
3 25 -82 0
-3 -25 -82 0
3 -25 82 0
-3 25 82 0
83 -81 0
83 82 0
81 -82 -83 0
-84 76 0
-84 -83 0
-76 83 84 0
85 28 0
85 -40 0
-28 40 -85 0
-86 -84 0
-86 85 0
84 -85 86 0
70 86 -87 0
-70 -86 -87 0
70 -86 87 0
-70 86 87 0
-88 -11 0
-88 58 0
11 -58 88 0
89 -42 0
89 88 0
42 -88 -89 0
-90 -18 0
-90 -18 0
18 90 0
-91 17 0
-91 -10 0
-17 10 91 0
-92 -90 0
-92 -91 0
90 91 92 0
-93 5 0
-93 92 0
-5 -92 93 0
-94 89 0
-94 -93 0
-89 93 94 0
40 10 -95 0
-40 -10 -95 0
40 -10 95 0
-40 10 95 0
-40 42 -96 0
40 -42 -96 0
-40 -42 96 0
40 42 96 0
97 -7 0
97 26 0
7 -26 -97 0
96 97 -98 0
-96 -97 -98 0
96 -97 98 0
-96 97 98 0
-95 -98 -99 0
95 98 -99 0
-95 98 99 0
95 -98 99 0
100 -94 0
100 -99 0
94 99 -100 0
-101 87 0
-101 100 0
-87 -100 101 0
-50 101 -102 0
50 -101 -102 0
-50 -101 102 0
50 101 102 0
-41 -17 -103 0
41 17 -103 0
-41 17 103 0
41 -17 103 0
104 -40 0
104 -2 0
40 2 -104 0
-103 104 -105 0
103 -104 -105 0
-103 -104 105 0
103 104 105 0
106 8 -107 0
-106 -8 -107 0
106 -8 107 0
-106 8 107 0
108 -41 0
108 -57 0
41 57 -108 0
-2 27 -109 0
2 -27 -109 0
-2 -27 109 0
2 27 109 0
12 109 -110 0
-12 -109 -110 0
12 -109 110 0
-12 109 110 0
-108 -110 -111 0
108 110 -111 0
-108 110 111 0
108 -110 111 0
-112 97 0
-112 42 0
-97 -42 112 0
-112 78 -113 0
112 -78 -113 0
-112 -78 113 0
112 78 113 0
-114 -111 0
-114 113 0
111 -113 114 0
-115 107 0
-115 114 0
-107 -114 115 0
-116 -105 0
-116 -115 0
105 115 116 0
117 -102 0
117 116 0
102 -116 -117 0
118 37 0
118 117 0
-37 -117 -118 0
-119 -16 0
-119 118 0
16 -118 119 0
119 73 -79 85 -68 29 0
-54 92 0
13 -93 -92 107 103 0
-101 48 68 87 0
51 -107 -118 -89 99 -88 0
-117 -55 0
96 50 60 0
87 101 0
-65 -39 80 35 102 -106 0
110 -32 8 103 -96 0
105 -31 -14 99 -90 33 0
44 89 -12 0
-90 59 -37 -63 86 101 0
105 -92 15 -102 27 0
35 -110 101 104 113 -29 0
-76 -114 -108 -82 -73 28 0
89 94 -84 -3 0
14 54 -60 0
92 47 0
-26 -46 -102 -15 -88 0
-76 -25 -103 -50 42 101 0
38 -95 102 58 0
111 -47 0
-40 -65 6 92 -35 0
-75 69 0
-82 -104 12 -49 0
-61 -116 101 0
56 -82 0
112 -7 95 109 -78 0
111 -57 26 0
-118 2 -41 97 0
77 44 -101 0
118 -40 -82 0
-58 103 28 11 -71 -39 0
-43 -45 57 0
4 -8 -112 -65 14 0
117 116 -100 -106 43 -27 0
-109 73 70 -4 -113 0
-58 -81 0
75 90 109 -74 0
51 -80 -1 104 -33 0
-93 84 -9 0
-38 -23 115 74 0
21 27 103 97 0
72 23 0
53 -119 22 -60 -10 0
104 -91 0
-34 -78 -74 -111 -88 0
114 113 -1 0
61 35 0
-99 -52 34 118 0
-118 13 -2 10 115 -65 0
37 19 0
119 0
